32
100
69	1
68	1
67	2
66	2
64	1
62	1
61	2
55	1
54	1
52	1
50	3
49	1
48	1
47	3
45	2
42	2
41	1
40	2
39	2
37	1
36	1
33	2
31	3
28	1
27	1
24	1
20	2
18	1
14	1
13	3
12	2
10	1
